Route #1: 1 19 6 7 20 34 38 50 46 33 32 45 58 68 77 69 70 63 59 71 64 72 65 51 39 35 21 25 14 8 9 10 15 22 26 40 47 52 60 53 54 61 55 56 48 43 36 24 29 42 41 28 27 23 2 11 16 17 3 4 12 13 5 18 31 37 30 44 49 57 62 76 67 80 88 95 87 94 79 75 93 99 98 92 78 74 66 73 85 86 91 97 84 83 82 81 96 90 89 100
Cost 45770
